(declare-fun temp30965_1 () (_ BitVec 64))
(declare-fun temp30965_2 () (_ BitVec 64))
(declare-fun var77740 () (_ BitVec 64))
(declare-fun k!0 () Bool)
(declare-fun ARGNAME_filter_NAMEEND_DIM () (_ BitVec 64))
(declare-fun ARGNAME_data_format_NAMEEND_STRFMT () (_ BitVec 64))
(declare-fun temp30965_3 () (_ BitVec 64))
(declare-fun ARGNAME_out_backprop_NAMEEND_DIM () (_ BitVec 64))
(declare-fun var77770 () (_ BitVec 64))
(declare-fun temp30965_4 () (_ BitVec 64))
(declare-fun temp30965_5 () (_ BitVec 64))
(declare-fun ARGNAME_filter_NAMEEND_DIMSIZE
             ()
             (Array (_ BitVec 64) (_ BitVec 64)))
(declare-fun temp30965_6 () (_ BitVec 64))
(declare-fun temp30965_7 () (_ BitVec 64))
(declare-fun temp30965_8 () (_ BitVec 64))
(declare-fun temp30965_9 () (_ BitVec 64))
(declare-fun temp30965_10 () (_ BitVec 64))
(declare-fun temp30965_11 () (_ BitVec 64))
(declare-fun temp30965_12 () (_ BitVec 64))
(declare-fun temp30965_13 () (_ BitVec 64))
(declare-fun temp30965_14 () (_ BitVec 64))
(declare-fun temp30965_15 () (_ BitVec 64))
(declare-fun temp30965_16 () (_ BitVec 64))
(declare-fun temp30965_17 () (_ BitVec 64))
(declare-fun temp30965_18 () (_ BitVec 64))
(declare-fun var77799 () (_ BitVec 64))
(declare-fun temp30965_19 () (_ BitVec 64))
(declare-fun ARGNAME_out_backprop_NAMEEND_DIMSIZE
             ()
             (Array (_ BitVec 64) (_ BitVec 64)))
(declare-fun temp30965_20 () (_ BitVec 64))
(declare-fun temp30965_21 () (_ BitVec 64))
(declare-fun temp30965_22 () (_ BitVec 64))
(declare-fun temp30965_23 () (_ BitVec 64))
(declare-fun temp30965_24 () (_ BitVec 64))
(declare-fun temp30965_25 () (_ BitVec 64))
(declare-fun temp30965_26 () (_ BitVec 64))
(declare-fun temp30965_27 () (_ BitVec 64))
(declare-fun temp30965_28 () (_ BitVec 64))
(declare-fun temp30965_29 () (_ BitVec 64))
(declare-fun temp30965_30 () (_ BitVec 64))
(declare-fun temp30965_31 () (_ BitVec 64))
(declare-fun temp30965_32 () (_ BitVec 64))
(declare-fun var77832 () (_ BitVec 64))
(declare-fun temp30965_33 () (_ BitVec 64))
(declare-fun temp30965_34 () (_ BitVec 64))
(declare-fun var77833 () (_ BitVec 64))
(declare-fun var77834 () (_ BitVec 64))
(declare-fun temp30965_35 () (_ BitVec 64))
(declare-fun temp30965_36 () (_ BitVec 64))
(declare-fun var275510 () (_ BitVec 64))
(declare-fun temp30965_37 () (_ BitVec 64))
(declare-fun var275528 () (_ BitVec 64))
(declare-fun temp30965_38 () (_ BitVec 64))
(declare-fun temp30965_40 () (_ BitVec 64))
(declare-fun temp30965_39 () (_ BitVec 64))
(declare-fun temp30965_42 () (_ BitVec 64))
(declare-fun temp30965_41 () (_ BitVec 64))
(declare-fun temp30965_43 () (_ BitVec 64))
(declare-fun var406582 () (_ BitVec 64))
(declare-fun temp30965_44 () (_ BitVec 64))
(declare-fun var406600 () (_ BitVec 64))
(declare-fun temp30965_45 () (_ BitVec 64))
(declare-fun temp30965_46 () (_ BitVec 64))
(declare-fun var537654 () (_ BitVec 64))
(declare-fun temp30965_47 () (_ BitVec 64))
(declare-fun var537672 () (_ BitVec 64))
(declare-fun temp30965_48 () (_ BitVec 64))
(declare-fun temp30965_50 () (_ BitVec 64))
(declare-fun temp30965_49 () (_ BitVec 64))
(declare-fun temp30965_52 () (_ BitVec 64))
(declare-fun temp30965_51 () (_ BitVec 64))
(declare-fun temp30965_54 () (_ BitVec 64))
(declare-fun temp30965_53 () (_ BitVec 64))
(declare-fun temp30965_56 () (_ BitVec 64))
(declare-fun temp30965_55 () (_ BitVec 64))
(declare-fun temp30965_57 () (_ BitVec 64))
(declare-fun var795723 () (_ BitVec 64))
(declare-fun var795702 () (_ BitVec 64))
(declare-fun var730134 () (_ BitVec 64))
(declare-fun temp30965_58 () (_ BitVec 64))
(declare-fun temp30965_59 () (_ BitVec 64))
(declare-fun var861259 () (_ BitVec 64))
(declare-fun var861238 () (_ BitVec 64))
(declare-fun var730144 () (_ BitVec 64))
(declare-fun temp30965_60 () (_ BitVec 64))
(declare-fun temp30965_61 () (_ BitVec 64))
(declare-fun var926795 () (_ BitVec 64))
(declare-fun var926774 () (_ BitVec 64))
(declare-fun var730147 () (_ BitVec 64))
(declare-fun temp30965_62 () (_ BitVec 64))
(declare-fun temp30965_63 () (_ BitVec 64))
(declare-fun var1123378 () (_ BitVec 64))
(declare-fun temp30965_64 () (_ BitVec 64))
(declare-fun var1188914 () (_ BitVec 64))
(declare-fun temp30965_65 () (_ BitVec 64))
(declare-fun var1254450 () (_ BitVec 64))
(assert (or (= ARGNAME_data_format_NAMEEND_STRFMT #x0000000000000000)
    (= ARGNAME_data_format_NAMEEND_STRFMT #x0000000000000001)
    (= ARGNAME_data_format_NAMEEND_STRFMT #x0000000000000002)
    (= ARGNAME_data_format_NAMEEND_STRFMT #x0000000000000003)
    (= ARGNAME_data_format_NAMEEND_STRFMT #x0000000000000004)
    (= ARGNAME_data_format_NAMEEND_STRFMT #x0000000000000005)))
(assert (= temp30965_1 #x0000000000000005))
(assert (= var77740
   (ite (= ARGNAME_filter_NAMEEND_DIM temp30965_1)
        #x0000000000000001
        #x0000000000000000)))
(assert (= temp30965_2 #x0000000000000001))
(assert (= var77740 temp30965_2))
(assert (= temp30965_3 #x0000000000000005))
(assert (= var77770
   (ite (= ARGNAME_out_backprop_NAMEEND_DIM temp30965_3)
        #x0000000000000001
        #x0000000000000000)))
(assert (= temp30965_4 #x0000000000000001))
(assert (= var77770 temp30965_4))
(assert (= temp30965_5 #x0000000000000000))
(assert (= temp30965_6 (select ARGNAME_filter_NAMEEND_DIMSIZE temp30965_5)))
(assert (= temp30965_7 #x0000000000000001))
(assert (= temp30965_8 (select ARGNAME_filter_NAMEEND_DIMSIZE temp30965_7)))
(assert (= temp30965_9 #x0000000000000002))
(assert (= temp30965_10 (select ARGNAME_filter_NAMEEND_DIMSIZE temp30965_9)))
(assert (= temp30965_11 #x0000000000000003))
(assert (= temp30965_12 (select ARGNAME_filter_NAMEEND_DIMSIZE temp30965_11)))
(assert (= temp30965_13 #x0000000000000004))
(assert (= temp30965_14 (select ARGNAME_filter_NAMEEND_DIMSIZE temp30965_13)))
(assert (= temp30965_15 #x0000000000000005))
(assert (= temp30965_16 (select ARGNAME_filter_NAMEEND_DIMSIZE temp30965_15)))
(assert (= temp30965_17 #x0000000000000003))
(assert (= temp30965_18 (select ARGNAME_filter_NAMEEND_DIMSIZE temp30965_17)))
(assert (= var77799 temp30965_18))
(assert (= temp30965_19 #x0000000000000000))
(assert (= temp30965_20 (select ARGNAME_out_backprop_NAMEEND_DIMSIZE temp30965_19)))
(assert (= temp30965_21 #x0000000000000001))
(assert (= temp30965_22 (select ARGNAME_out_backprop_NAMEEND_DIMSIZE temp30965_21)))
(assert (= temp30965_23 #x0000000000000002))
(assert (= temp30965_24 (select ARGNAME_out_backprop_NAMEEND_DIMSIZE temp30965_23)))
(assert (= temp30965_25 #x0000000000000003))
(assert (= temp30965_26 (select ARGNAME_out_backprop_NAMEEND_DIMSIZE temp30965_25)))
(assert (= temp30965_27 #x0000000000000004))
(assert (= temp30965_28 (select ARGNAME_out_backprop_NAMEEND_DIMSIZE temp30965_27)))
(assert (= temp30965_29 #x0000000000000005))
(assert (= temp30965_30 (select ARGNAME_out_backprop_NAMEEND_DIMSIZE temp30965_29)))
(assert (= temp30965_31 #x0000000000000004))
(assert (= temp30965_32 (select ARGNAME_out_backprop_NAMEEND_DIMSIZE temp30965_31)))
(assert (= var77832 temp30965_32))
(assert (= temp30965_33 #x0000000000000004))
(assert (= temp30965_34 (select ARGNAME_filter_NAMEEND_DIMSIZE temp30965_33)))
(assert (= var77833 temp30965_34))
(assert (= var77834 (ite (= var77832 var77833) #x0000000000000001 #x0000000000000000)))
(assert (= temp30965_35 #x0000000000000001))
(assert (= var77834 temp30965_35))
(assert (= temp30965_36 #x0000000000000001))
(assert (= var275510 temp30965_36))
(assert (= temp30965_37 #x0000000000000001))
(assert (= var275528
   (ite (bvslt var275510 temp30965_37) #x0000000000000001 #x0000000000000000)))
(assert (= temp30965_38 #x0000000000000000))
(assert (= var275528 temp30965_38))
(assert (= temp30965_40 #x0000000000000000))
(assert (= temp30965_39 temp30965_40))
(assert (= temp30965_42 #x0000000000000000))
(assert (= temp30965_41 temp30965_42))
(assert (= temp30965_43 #x0000000000000001))
(assert (= var406582 temp30965_43))
(assert (= temp30965_44 #x0000000000000001))
(assert (= var406600
   (ite (bvslt var406582 temp30965_44) #x0000000000000001 #x0000000000000000)))
(assert (= temp30965_45 #x0000000000000000))
(assert (= var406600 temp30965_45))
(assert (= temp30965_46 #x0000000000000001))
(assert (= var537654 temp30965_46))
(assert (= temp30965_47 #x0000000000000001))
(assert (= var537672
   (ite (bvslt var537654 temp30965_47) #x0000000000000001 #x0000000000000000)))
(assert (= temp30965_48 #x0000000000000000))
(assert (= var537672 temp30965_48))
(assert (= temp30965_50 #x0000000000000000))
(assert (= temp30965_49 temp30965_50))
(assert (= temp30965_52 #x00000000000000ff))
(assert (= temp30965_51 temp30965_52))
(assert (= temp30965_54 #x00000000000000ff))
(assert (= temp30965_53 temp30965_54))
(assert (= temp30965_56 #x00000000000000ff))
(assert (= temp30965_55 temp30965_56))
(assert (= temp30965_57 #x0000000000000000))
(assert (= var795723 temp30965_57))
(assert (= var795702 var795723))
(assert (= var730134 var795702))
(assert (= temp30965_58 #x0000000000000000))
(assert (= var730134 temp30965_58))
(assert (= temp30965_59 #x0000000000000000))
(assert (= var861259 temp30965_59))
(assert (= var861238 var861259))
(assert (= var730144 var861238))
(assert (= temp30965_60 #x0000000000000000))
(assert (= var730144 temp30965_60))
(assert (= temp30965_61 #x0000000000000000))
(assert (= var926795 temp30965_61))
(assert (= var926774 var926795))
(assert (= var730147 var926774))
(assert (= temp30965_62 #x0000000000000000))
(assert (= var730147 temp30965_62))
(assert (= temp30965_63 #x0000000000008000))
(assert (= var1123378 temp30965_63))
(assert (= temp30965_64 #x0000000000040000))
(assert (= var1188914 temp30965_64))
(assert (= temp30965_65 #x0000000000200000))
(assert (= var1254450 temp30965_65))
(model-add temp30965_1 () (_ BitVec 64) #x0000000000000005)
(model-add temp30965_2 () (_ BitVec 64) #x0000000000000001)
(model-add var77740 () (_ BitVec 64) #x0000000000000001)
(model-del k!0)
(model-add ARGNAME_filter_NAMEEND_DIM
           ()
           (_ BitVec 64)
           (ite k!0 #x0000000000000005 (bvnot #x0000000000000005)))


